Minimize
  - 29 y_0 - 49 y_1 - 31 y_2 - 45 y_3 - 31 y_4 - 12 y_5 - 39 y_6 - 36 y_7
   - 13 y_8 - 41 y_9 - 49 y_10 - 55 y_11 - 27 y_13 - 52 y_14 - 71 y_15
   - 41 y_16 - 40 y_17 - 52 y_18 - 59 y_19 - 61 y_20 - 53 y_21 - 41 y_22
   - 38 y_23 - 33 y_24 - 28 y_25 - 39 y_26 - 61 y_27 - 60 y_28 - 36 y_29
   - 17 y_30 - 45 y_31 - 47 y_32 - 33 y_33 - 22 y_34 - 29 y_35 - 53 y_36
   - 38 y_37 - 32 y_38 - 43 y_39 - 51 y_40 - 34 y_41 - 23 y_42 - 45 y_43
   - 29 y_44 - 53 y_45 - 24 y_46 - 54 y_47 - 7 y_48 - 30 y_49
   + 1931 Constant
Subject To
 c_0: y_32 = 1
 c_1_0: y_0 + y_4 + y_44 >= 1
 c_1_1: y_1 >= 1
 c_1_2: y_2 + y_13 + y_24 + y_38 + y_46 >= 1
 c_1_3: y_3 + y_22 >= 1
 c_1_4: y_0 + y_4 + y_33 + y_44 >= 1
 c_1_5: y_5 + y_8 + y_42 >= 1
 c_1_6: y_6 + y_16 >= 1
 c_1_7: y_7 + y_39 + y_41 >= 1
 c_1_8: y_5 + y_8 >= 1
 c_1_9: y_9 >= 1
 c_1_10: y_10 + y_21 >= 1
 c_1_11: y_11 + y_47 >= 1
 c_1_12: y_12 + y_48 >= 1
 c_1_13: y_2 + y_13 + y_24 + y_38 + y_46 >= 1
 c_1_14: y_14 + y_32 + y_39 + y_40 >= 1
 c_1_15: y_15 >= 1
 c_1_16: y_6 + y_16 >= 1
 c_1_17: y_17 >= 1
 c_1_18: y_18 + y_19 + y_45 >= 1
 c_1_19: y_18 + y_19 + y_45 >= 1
 c_1_20: y_20 >= 1
 c_1_21: y_10 + y_21 >= 1
 c_1_22: y_3 + y_22 >= 1
 c_1_23: y_23 >= 1
 c_1_24: y_2 + y_13 + y_24 + y_29 + y_37 >= 1
 c_1_25: y_25 + y_29 >= 1
 c_1_26: y_26 >= 1
 c_1_27: y_27 >= 1
 c_1_28: y_28 + y_40 >= 1
 c_1_29: y_24 + y_25 + y_29 + y_37 >= 1
 c_1_30: y_30 >= 1
 c_1_31: y_31 >= 1
 c_1_32: y_14 + y_32 + y_39 + y_40 >= 1
 c_1_33: y_4 + y_33 + y_49 >= 1
 c_1_34: y_34 >= 1
 c_1_35: y_35 + y_41 + y_42 >= 1
 c_1_36: y_36 >= 1
 c_1_37: y_24 + y_29 + y_37 >= 1
 c_1_38: y_2 + y_13 + y_38 + y_46 >= 1
 c_1_39: y_7 + y_14 + y_32 + y_39 + y_41 >= 1
 c_1_40: y_14 + y_28 + y_32 + y_40 >= 1
 c_1_41: y_7 + y_35 + y_39 + y_41 >= 1
 c_1_42: y_5 + y_35 + y_42 >= 1
 c_1_43: y_43 >= 1
 c_1_44: y_0 + y_4 + y_44 >= 1
 c_1_45: y_18 + y_19 + y_45 >= 1
 c_1_46: y_2 + y_13 + y_38 + y_46 >= 1
 c_1_47: y_11 + y_47 >= 1
 c_1_48: y_12 + y_48 >= 1
 c_1_49: y_33 + y_49 >= 1
Bounds
 Constant = 1
Binaries
 y_0 y_1 y_2 y_3 y_4 y_5 y_6 y_7 y_8 y_9 y_10 y_11 y_12 y_13 y_14 y_15 y_16
 y_17 y_18 y_19 y_20 y_21 y_22 y_23 y_24 y_25 y_26 y_27 y_28 y_29 y_30 y_31
 y_32 y_33 y_34 y_35 y_36 y_37 y_38 y_39 y_40 y_41 y_42 y_43 y_44 y_45 y_46
 y_47 y_48 y_49
End
